# 56009
param k := 6;
param n := 60;
param s := 1;
set E :=  (0,31) (0,42) (1,10) (2,58) (2,59) (3,29) (4,37) (5,11) (5,24) (5,49) (6,30) (7,15) (7,22) (7,23) (7,36) (7,47) (8,39) (9,12) (10,19) (10,28) (11,13) (11,19) (11,51) (12,14) (12,28) (12,30) (14,27) (15,53) (16,35) (17,25) (18,33) (18,35) (18,36) (18,38) (19,32) (19,36) (19,45) (19,55) (20,32) (20,43) (20,48) (20,57) (21,59) (23,25) (24,50) (25,56) (26,41) (26,43) (29,55) (31,32) (31,46) (34,55) (37,45) (37,52) (37,59) (39,48) (40,59) (43,44) (54,57);